NAME: 1
PRECURSORMZ: 517.220153808594
PRECURSORTYPE: [M+Cl]-
RETENTIONTIME: 1.6713741
FORMULA: C24H38O12
ONTOLOGY: C24H38O12
INCHIKEY: C24H38O12
SMILES: C24H38O12
COMMENT: |PEAKID=1259|MS1SCAN=738|MS2SCAN=740|PEAKHEIGHT=2980058|PEAKAREA=8982442|ISOTOPE=M+0
Num Peaks: 16
51.77628	2676
59.01255	39191
69.81786	2732
71.01244	16165
80.75666	2702
89.02307	19201
101.02286	19834
113.02267	11827
115.0153	2921
119.03331	10644
135.92453	2636
164.76433	2874
201.15408	2672
220.21898	4687
220.24257	2541
283.83829	2783

NAME: 3
PRECURSORMZ: 719.253662109375
PRECURSORTYPE: [M+H]+
RETENTIONTIME: 5.5557645
FORMULA: C33H44O16
ONTOLOGY: C33H44O16
INCHIKEY: C33H44O16
SMILES: C33H44O16
COMMENT: |PEAKID=3522|MS1SCAN=2647|MS2SCAN=2671|PEAKHEIGHT=32009147|PEAKAREA=88496408|ISOTOPE=M+0
Num Peaks: 59
50.65101	3705
52.45255	3276
53.03886	5443
55.01812	8082
55.05449	20456
57.03388	28278
59.04931	13461
61.02863	73264
67.05413	6400
69.0291	7002
69.03359	484934
69.03674	9958
71.01267	5529
71.04923	158836
73.02831	20131
78.2644	6629
78.26875	4619
81.03349	41179
81.92405	3814
83.04917	310141
83.05373	3976
85.02843	479362
87.04411	215006
87.04887	4049
91.03889	22480
92.27946	5439
95.04915	39448
97.0285	134510
99.04411	38052
101.05959	6651
109.02842	44612
111.04406	214692
111.05281	7075
113.02331	4066
113.05967	39852
115.03896	17462
116.9258	3300
125.02332	7214
126.23248	3176
127.03889	111152
128.60335	3562
129.05453	415120
129.07079	5106
133.04918	28597
145.04973	47687
162.74863	3874
164.99637	4153
173.08076	17102
179.94962	3481
189.07599	25828
221.16721	4039
313.07043	594377
325.07028	23257
355.08212	17642
361.1106	4032
369.00958	3540
369.13303	781298
405.09714	39016
423.10928	5262

NAME: 6
PRECURSORMZ: 1102.57739257813
PRECURSORTYPE: [M+NH4]+
RETENTIONTIME: 5.2319688
FORMULA: C50H84O25
ONTOLOGY: C50H84O25
INCHIKEY: C50H84O25
SMILES: C50H84O25
COMMENT: |PEAKID=4449|MS1SCAN=2552|MS2SCAN=2577|PEAKHEIGHT=8762127|PEAKAREA=22616057|ISOTOPE=M+0
Num Peaks: 36
79.05418	9077
81.02872	6501
81.03357	117799
81.06979	29452
83.04915	75688
83.06473	4672
84.87762	4354
85.02241	6758
85.0284	298198
85.03282	4183
90.84405	4373
91.05403	18041
93.06986	26067
95.04898	7783
95.08546	44443
97.02835	48966
99.04404	20945
105.06987	57444
107.08559	20498
109.0284	83641
109.10107	21453
111.04399	23831
119.08521	37124
121.1012	21259
127.039	48816
129.0695	6233
131.0854	25144
133.10159	9423
135.11684	7478
143.0854	9356
145.10091	10412
149.13121	5618
157.10091	6077
159.11598	7523
173.13176	8078
185.132	8234

NAME: 7
PRECURSORMZ: 577.155517578125
PRECURSORTYPE: [M-H]-
RETENTIONTIME: 1.9878949
FORMULA: C27H30O14
ONTOLOGY: C27H30O14
INCHIKEY: C27H30O14
SMILES: C27H30O14
COMMENT: |PEAKID=2231|MS1SCAN=1026|MS2SCAN=1038|PEAKHEIGHT=63432167|PEAKAREA=238648425|ISOTOPE=M+0
Num Peaks: 64
59.01268	9641
63.02272	303067
63.02653	7625
63.78578	6160
65.00198	288109
67.26008	13224
67.26387	6968
69.12623	5904
72.0619	7058
81.03318	9877
83.0127	53440
93.03326	144450
96.06716	6574
100.94506	6480
105.03325	43648
107.01245	415159
116.54346	6660
117.02583	18601
117.0332	1010904
117.06246	7170
121.02808	135763
131.04797	6972
132.0215	6781
135.04369	34337
139.05434	6679
147.0078	33923
148.01505	12622
149.02321	202366
151.00241	331449
154.04073	6676
155.04878	51427
157.06477	55962
159.04387	330505
161.02318	250497
167.05069	8142
169.06471	145479
171.04433	26136
173.0596	30792
174.65784	6843
180.05713	54854
181.0647	113094
182.03593	54327
183.04395	256315
185.05975	8941
195.04457	40780
196.05203	167023
196.94907	6210
197.05991	146942
199.03931	34526
201.05479	104994
203.03445	8895
210.03227	11961
211.03972	10555
213.05511	27519
220.7702	7798
223.04015	6544
224.04643	77342
225.05493	229559
227.03372	58022
240.04277	48998
241.04982	23013
267.02859	7188
268.03748	12815
269.01813	14551

NAME: 9
PRECURSORMZ: 336.173431396484
PRECURSORTYPE: [M+H]+
RETENTIONTIME: 3.4172474
FORMULA: C17H25N3O2S
ONTOLOGY: C17H25N3O2S
INCHIKEY: C17H25N3O2S
SMILES: C17H25N3O2S
COMMENT: |PEAKID=1071|MS1SCAN=1565|MS2SCAN=1564|PEAKHEIGHT=144278496|PEAKAREA=837749119|ISOTOPE=M+0
Num Peaks: 31
56.04978	167718
56.16159	23246
57.05766	33529
58.05694	303372
58.05822	330331
58.05997	276308
58.06264	532098
58.06535	36067480
58.07096	152870
58.07224	283351
58.07508	87169
59.36343	23619
72.77635	26828
130.06497	315138
133.00372	21695
144.08029	53035
153.058	23030
156.08067	2446165
157.0766	39028
157.08846	4982726
158.09633	3491768
170.09605	51659
172.11208	164634
198.43002	22723
201.13852	1169741
227.15366	54039
291.07684	45493
291.08771	64383
291.11578	4029659
316.52478	22331
336.1752	33917

NAME: 10
PRECURSORMZ: 472.208465576172
PRECURSORTYPE: [M+H]+
RETENTIONTIME: 2.2518568
FORMULA: C27H39NO7
ONTOLOGY: C27H39NO7
INCHIKEY: C27H39NO7
SMILES: C27H39NO7
COMMENT: |PEAKID=1025|MS1SCAN=1084|MS2SCAN=1080|PEAKHEIGHT=32723099|PEAKAREA=104104231|ISOTOPE=M+0
Num Peaks: 65
53.37937	4438
58.12525	4918
66.64451	4600
72.27358	92074
72.27881	53752
74.47462	4047
76.5304	8092
76.53487	5926
81.03289	6711
81.03753	6549
86.0082	5361
97.92261	4474
100.36685	4632
107.06017	66029
108.37367	4770
113.28625	4497
131.06287	23171
133.07622	8658
144.07146	30204
145.07574	286566
148.08658	276418
148.09999	9722
149.07076	147541
154.70581	5061
159.05486	50463
167.08131	9549
172.06262	347901
172.07982	9710
173.0715	6905
177.06584	11695
188.08096	24632
189.0497	5454
189.06544	307351
189.08426	7709
200.08188	5673
206.09123	5465
215.49754	32684
242.09241	20182
261.11462	10928
263.12863	95646
264.09976	134358
265.108	234901
267.00787	5157
277.10788	25822
278.13898	37488
288.12396	21049
289.00598	16962
289.03281	50624
289.10782	8263766
289.16605	32757
289.18591	68221
289.20099	29247
293.1019	10113
304.26093	5164
305.15005	6376
306.13422	801654
307.07574	5263
307.11829	602685
324.14487	875827
336.12125	37425
337.12881	470191
365.15039	21176
377.16843	7865
383.15979	49091
400.18616	90757

NAME: 11
PRECURSORMZ: 657.311645507813
PRECURSORTYPE: [M+H]+
RETENTIONTIME: 6.02998
FORMULA: C37H62N2O29
ONTOLOGY: C37H62N2O29
INCHIKEY: C37H62N2O29
SMILES: C37H62N2O29
COMMENT: |PEAKID=2893|MS1SCAN=2740|MS2SCAN=2775|PEAKHEIGHT=16532850|PEAKAREA=41179656|ISOTOPE=M+0
Num Peaks: 43
55.05423	4196
55.9818	2985
57.03344	3168
60.24563	2817
69.03355	5892
71.04913	26968
79.05413	14840
81.03363	20349
81.06956	3977
85.06464	28169
90.07176	2912
93.06979	9993
95.08547	5952
99.04378	18779
105.06963	5221
107.0854	6491
109.06411	3403
109.10107	3498
111.08039	4223
115.03059	5973
117.05412	3339
119.08527	4867
121.10123	5405
123.08035	5203
143.07025	3223
143.08553	3765
145.10118	4476
159.11665	3290
161.13208	3507
170.68529	3197
171.11729	4636
173.13222	3270
198.55658	2849
220.05765	4642
243.08749	99289
323.1152	4122
341.12457	5551
359.134	31345
377.09027	5805
377.14523	226147
411.16306	16795
429.17636	43467
447.18338	13510

NAME: 12
PRECURSORMZ: 185.05973815918
PRECURSORTYPE: [M-H]-
RETENTIONTIME: 4.9482494
FORMULA: C7H10N2O4
ONTOLOGY: C7H10N2O4
INCHIKEY: C7H10N2O4
SMILES: C7H10N2O4
COMMENT: |PEAKID=936|MS1SCAN=2369|MS2SCAN=2370|PEAKHEIGHT=1661634|PEAKAREA=6605087|ISOTOPE=M+0
Num Peaks: 12
59.73724	2044
116.9277	2526
140.86661	8219
141.03807	4049
141.04286	6439
141.06956	838157
141.08989	7895
141.09569	4877
141.10503	3495
142.07335	10278
185.01036	2868
185.05954	71580

NAME: 13
PRECURSORMZ: 723.395935058594
PRECURSORTYPE: [M+FA-H]-
RETENTIONTIME: 5.5124624
FORMULA: null
ONTOLOGY: null
INCHIKEY: null
SMILES: null
COMMENT: |PEAKID=5158|MS1SCAN=3318|MS2SCAN=3321|PEAKHEIGHT=7115624|PEAKAREA=36368181|ISOTOPE=M+0
Num Peaks: 14
54.30627	3324
55.10415	2850
57.03317	4452
59.01249	211867
68.93002	2681
71.01252	6977
79.3764	2760
80.42783	2765
82.94823	2804
162.17618	2935
183.14998	3191
195.79184	3468
227.21622	3293
304.2793	6682

NAME: 14
PRECURSORMZ: 679.405334472656
PRECURSORTYPE: [M+FA-H]-
RETENTIONTIME: 5.4644725
FORMULA: C36H58O9
ONTOLOGY: C36H58O9
INCHIKEY: C36H58O9
SMILES: C36H58O9
COMMENT: |PEAKID=2836|MS1SCAN=2611|MS2SCAN=2623|PEAKHEIGHT=79582188|PEAKAREA=234485434|ISOTOPE=M+0
Num Peaks: 8
59.00562	8604
59.0125	13396
62.69252	8069
67.86488	7338
107.36269	8040
215.52126	19754
215.54701	34945
304.28745	10460